(set-logic HORN)
(declare-fun inv ((_ BitVec 32) (_ BitVec 32) (_ BitVec 32) ) Bool)
(assert (forall ((i (_ BitVec 32)) (j (_ BitVec 32)) (k (_ BitVec 32))) 
       (=> ( and ( = j (_ bv0 32) ) ( = i (_ bv10 32) ) ) (inv i j k))))
(assert (forall ((i (_ BitVec 32)) (j (_ BitVec 32)) (k (_ BitVec 32)) (i! (_ BitVec 32)) (j! (_ BitVec 32)) (k! (_ BitVec 32))) 
       (=> (and (inv i j k) ( and ( bvslt j (_ bv1000 32) ) ( = i! ( bvadd i k ) ) ( = j! ( bvadd j (_ bv1 32) ) ) ( = k! k ) )) (inv i! j! k!))))
(assert (forall ((i (_ BitVec 32)) (j (_ BitVec 32)) (k (_ BitVec 32))) 
       (=> (inv i j k) ( or ( bvslt j (_ bv1000 32) ) ( = i ( bvadd (_ bv10 32) ( bvmul k j ) ) ) ))))
(check-sat)
